p cnf 20 29
1 2 0
-1 -2 0
3 4 0
-3 -4 0
5 6 0
-5 -6 0
7 8 0
-7 -8 0
9 10 0
-9 -10 0
11 12 0
-11 -12 0
13 0
14 0
15 0
16 0
17 0
18 19 20 0
-18 -19 -20 0
18 -19 -20 0
-18 19 -20 0
-18 -19 20 0
-3 -1 0
-4 -2 0
-9 -16 0
-9 -18 0
-10 -13 0
-10 -19 0
-13 -19 0